peakDumbCharging = 18500; 
Machine = anon_enum(16); 
machineSpeed = [3700,3700,3700,3700,3700,3700,3700,3700,3700,3700,3700,3700,3700,3700,3700,3700]; 
machineLoad = [3700,3700,3700,3700,3700,3700,3700,3700,3700,3700,3700,3700,3700,3700,3700,3700]; 
Car = anon_enum(20); 
demandCar = [7040,9880,19840,8200,2920,8080,31680,2800,10800,15040,5440,11240,6200,12480,27160,36200,10480,8320,32880,29960]; 
arrivalCar = [85,75,74,72,70,69,69,66,66,66,65,54,53,50,48,47,46,42,39,29]; 
departureCar = [89,79,81,78,72,73,79,68,72,73,68,60,58,58,60,67,52,46,56,44]; 
